
  17    0


   0   8 2 3 4 5 6 14 15 16 
   6   4 13 12 9 8 
   2   3 11 10 7 
   5   1 9 
   6   1 8 
   2   1 7 
   8   1 17
   4   1 17
   8   1 17
   7   1 17
   1   1 17
  10   1 17
   7   1 17
   9   1 17
   2   1 17
   2   1 17
   0   0 
